Total weight: 1501.8894988898535
Route 1: 0 90 69 98 88 6 8 46 3 4 1 55 68 0 
Route 2: 0 2 45 5 44 38 81 61 7 79 78 73 10 11 59 13 17 60 100 70 0 
Route 3: 0 72 92 95 63 33 28 27 29 31 30 62 67 71 94 41 40 35 37 43 0 
Route 4: 0 36 39 42 14 47 16 15 12 53 9 87 97 74 58 77 0 
Route 5: 0 65 82 52 75 23 21 18 76 51 85 84 56 66 96 54 93 91 0 
Route 6: 0 64 83 99 86 57 22 19 49 20 50 34 32 26 89 48 24 25 0 
Route 7: 0 80 0 
